Set parameter LicenseID to value 2609176
Set parameter TimeLimit to value 1800
Gurobi Optimizer version 11.0.3 build v11.0.3rc0 (linux64 - "Debian GNU/Linux 12 (bookworm)")

CPU model: AMD EPYC 7B12, instruction set [SSE2|AVX|AVX2]
Thread count: 4 physical cores, 8 logical processors, using up to 8 threads

Optimize a model with 1266254 rows, 253009 columns and 116885902 nonzeros
Model fingerprint: 0x7f6f8dd1
Variable types: 0 continuous, 253009 integer (253009 binary)
Coefficient statistics:
  Matrix range     [1e+00, 1e+00]
  Objective range  [0e+00, 0e+00]
  Bounds range     [1e+00, 1e+00]
  RHS range        [1e+00, 1e+00]
Presolve removed 252 rows and 252 columns (presolve time = 7s) ...
Presolve removed 252 rows and 252 columns (presolve time = 12s) ...
Presolve removed 252 rows and 252 columns (presolve time = 16s) ...
Presolve removed 252 rows and 252 columns (presolve time = 20s) ...
Presolve removed 252 rows and 252 columns (presolve time = 27s) ...
Presolve removed 252 rows and 252 columns (presolve time = 30s) ...
Presolve removed 252 rows and 252 columns (presolve time = 35s) ...
Presolve removed 252 rows and 252 columns (presolve time = 40s) ...
Presolve removed 252 rows and 252 columns (presolve time = 45s) ...
Presolve removed 252 rows and 252 columns (presolve time = 50s) ...
Presolve removed 252 rows and 252 columns (presolve time = 55s) ...
Presolve removed 5220 rows and 252 columns (presolve time = 62s) ...
Presolve removed 5220 rows and 252 columns (presolve time = 65s) ...
Presolve removed 5220 rows and 252 columns (presolve time = 71s) ...
Presolve removed 5220 rows and 252 columns (presolve time = 77s) ...
Presolve removed 5220 rows and 252 columns (presolve time = 81s) ...
Presolve removed 5220 rows and 252 columns (presolve time = 86s) ...
Presolve removed 5220 rows and 252 columns (presolve time = 90s) ...
Presolve removed 5220 rows and 252 columns (presolve time = 97s) ...
Presolve removed 5220 rows and 252 columns (presolve time = 100s) ...
Presolve removed 5220 rows and 252 columns (presolve time = 105s) ...
Presolve removed 5220 rows and 252 columns (presolve time = 110s) ...
Presolve removed 5220 rows and 252 columns (presolve time = 115s) ...
Presolve removed 5220 rows and 252 columns (presolve time = 127s) ...
Presolve removed 5220 rows and 252 columns (presolve time = 132s) ...
Presolve removed 5220 rows and 252 columns
Presolve time: 132.03s
Presolved: 1261034 rows, 252757 columns, 116403250 nonzeros
Variable types: 0 continuous, 252757 integer (252757 binary)
Error: invalid user locale; possible fix is to set the system environment
       variable 'LC_ALL' to a valid locale (e.g., to 'C')

Deterministic concurrent LP optimizer: primal simplex, dual simplex, and barrier
Showing barrier log only...

